solution status: optimal solution found
objective value:                                   17
true                                                1 	(obj:0)
x0002                                               1 	(obj:1)
x0003                                               1 	(obj:1)
x0004                                               1 	(obj:1)
x0005                                               1 	(obj:1)
x0006                                               1 	(obj:1)
x0007                                               1 	(obj:1)
x0008                                               1 	(obj:1)
x0011                                               1 	(obj:1)
x0012                                               1 	(obj:1)
x0015                                               1 	(obj:1)
x0016                                               1 	(obj:1)
x0018                                               1 	(obj:1)
x0019                                               1 	(obj:1)
x0021                                               1 	(obj:1)
x0023                                               1 	(obj:1)
x0026                                               1 	(obj:1)
x0027                                               1 	(obj:1)
